c This is a simple example file to demonstrate the DIMACS
c input file format for maximum flow problems. The solution
c vector is [5,10,5,0,5,5,10,5] with cost at 15.
c Problem line (nodes, links)
p edges 6 8
e 1 2 5
e 1 3 15
e 2 4 5
e 2 5 5
e 3 4 5
e 3 5 5
e 4 6 15
e 5 6 5
